experiments/knapsack_bounded/knapsack_bounded_15_5.mps
NAME
ROWS
 N  OBJ
 L  c1
 L  c2
 L  c3
 L  c4
 L  c5
 L  c6
 L  c7
 L  c8
 L  c9
 L  c10
 L  c11
 L  c12
 L  c13
 L  c14
 L  c15
 L  c16
COLUMNS
    MARKER    'MARKER'                 'INTORG'
    x[1]      c1        533
    x[1]      c2        1
    x[1]      OBJ       -916
    x[2]      c1        667
    x[2]      c3        1
    x[2]      OBJ       -816
    x[3]      c1        447
    x[3]      c4        1
    x[3]      OBJ       -18
    x[4]      c1        822
    x[4]      c5        1
    x[4]      OBJ       -525
    x[5]      c1        385
    x[5]      c6        1
    x[5]      OBJ       -501
    x[6]      c1        879
    x[6]      c7        1
    x[6]      OBJ       -395
    x[7]      c1        736
    x[7]      c8        1
    x[7]      OBJ       -438
    x[8]      c1        683
    x[8]      c9        1
    x[8]      OBJ       -610
    x[9]      c1        834
    x[9]      c10       1
    x[9]      OBJ       -248
    x[10]     c1        829
    x[10]     c11       1
    x[10]     OBJ       -808
    x[11]     c1        55
    x[11]     c12       1
    x[11]     OBJ       -583
    x[12]     c1        269
    x[12]     c13       1
    x[12]     OBJ       -118
    x[13]     c1        123
    x[13]     c14       1
    x[13]     OBJ       -535
    x[14]     c1        338
    x[14]     c15       1
    x[14]     OBJ       -729
    x[15]     c1        147
    x[15]     c16       1
    x[15]     OBJ       -707
    MARKER    'MARKER'                 'INTEND'
RHS
    rhs       c1        3874
    rhs       c2        4
    rhs       c3        8
    rhs       c4        6
    rhs       c5        10
    rhs       c6        9
    rhs       c7        7
    rhs       c8        7
    rhs       c9        4
    rhs       c10       4
    rhs       c11       8
    rhs       c12       7
    rhs       c13       7
    rhs       c14       2
    rhs       c15       9
    rhs       c16       3
RANGES
BOUNDS
 LO bounds    x[1]      0
 PL bounds    x[1]
 LO bounds    x[2]      0
 PL bounds    x[2]
 LO bounds    x[3]      0
 PL bounds    x[3]
 LO bounds    x[4]      0
 PL bounds    x[4]
 LO bounds    x[5]      0
 PL bounds    x[5]
 LO bounds    x[6]      0
 PL bounds    x[6]
 LO bounds    x[7]      0
 PL bounds    x[7]
 LO bounds    x[8]      0
 PL bounds    x[8]
 LO bounds    x[9]      0
 PL bounds    x[9]
 LO bounds    x[10]     0
 PL bounds    x[10]
 LO bounds    x[11]     0
 PL bounds    x[11]
 LO bounds    x[12]     0
 PL bounds    x[12]
 LO bounds    x[13]     0
 PL bounds    x[13]
 LO bounds    x[14]     0
 PL bounds    x[14]
 LO bounds    x[15]     0
 PL bounds    x[15]
ENDATA
